c CNF file corresponding to a (partial) station packing problem.
p cnf 2939 229
1 2 3 4 5 6 7 8 9 10 11 12 13 14 0
-1 -2 0
-1 -3 0
-1 -4 0
-1 -5 0
-1 -6 0
-1 -7 0
-1 -8 0
-1 -9 0
-1 -10 0
-1 -11 0
-1 -12 0
-1 -13 0
-1 -14 0
-2 -3 0
-2 -4 0
-2 -5 0
-2 -6 0
-2 -7 0
-2 -8 0
-2 -9 0
-2 -10 0
-2 -11 0
-2 -12 0
-2 -13 0
-2 -14 0
-3 -4 0
-3 -5 0
-3 -6 0
-3 -7 0
-3 -8 0
-3 -9 0
-3 -10 0
-3 -11 0
-3 -12 0
-3 -13 0
-3 -14 0
-4 -5 0
-4 -6 0
-4 -7 0
-4 -8 0
-4 -9 0
-4 -10 0
-4 -11 0
-4 -12 0
-4 -13 0
-4 -14 0
-5 -6 0
-5 -7 0
-5 -8 0
-5 -9 0
-5 -10 0
-5 -11 0
-5 -12 0
-5 -13 0
-5 -14 0
-6 -7 0
-6 -8 0
-6 -9 0
-6 -10 0
-6 -11 0
-6 -12 0
-6 -13 0
-6 -14 0
-7 -8 0
-7 -9 0
-7 -10 0
-7 -11 0
-7 -12 0
-7 -13 0
-7 -14 0
-8 -9 0
-8 -10 0
-8 -11 0
-8 -12 0
-8 -13 0
-8 -14 0
-9 -10 0
-9 -11 0
-9 -12 0
-9 -13 0
-9 -14 0
-10 -11 0
-10 -12 0
-10 -13 0
-10 -14 0
-11 -12 0
-11 -13 0
-11 -14 0
-12 -13 0
-12 -14 0
-13 -14 0
2923 2924 2925 2926 2927 2928 2929 2930 2931 2932 2933 2934 2935 2936 2937 2938 2939 0
-2923 -2924 0
-2923 -2925 0
-2923 -2926 0
-2923 -2927 0
-2923 -2928 0
-2923 -2929 0
-2923 -2930 0
-2923 -2931 0
-2923 -2932 0
-2923 -2933 0
-2923 -2934 0
-2923 -2935 0
-2923 -2936 0
-2923 -2937 0
-2923 -2938 0
-2923 -2939 0
-2924 -2925 0
-2924 -2926 0
-2924 -2927 0
-2924 -2928 0
-2924 -2929 0
-2924 -2930 0
-2924 -2931 0
-2924 -2932 0
-2924 -2933 0
-2924 -2934 0
-2924 -2935 0
-2924 -2936 0
-2924 -2937 0
-2924 -2938 0
-2924 -2939 0
-2925 -2926 0
-2925 -2927 0
-2925 -2928 0
-2925 -2929 0
-2925 -2930 0
-2925 -2931 0
-2925 -2932 0
-2925 -2933 0
-2925 -2934 0
-2925 -2935 0
-2925 -2936 0
-2925 -2937 0
-2925 -2938 0
-2925 -2939 0
-2926 -2927 0
-2926 -2928 0
-2926 -2929 0
-2926 -2930 0
-2926 -2931 0
-2926 -2932 0
-2926 -2933 0
-2926 -2934 0
-2926 -2935 0
-2926 -2936 0
-2926 -2937 0
-2926 -2938 0
-2926 -2939 0
-2927 -2928 0
-2927 -2929 0
-2927 -2930 0
-2927 -2931 0
-2927 -2932 0
-2927 -2933 0
-2927 -2934 0
-2927 -2935 0
-2927 -2936 0
-2927 -2937 0
-2927 -2938 0
-2927 -2939 0
-2928 -2929 0
-2928 -2930 0
-2928 -2931 0
-2928 -2932 0
-2928 -2933 0
-2928 -2934 0
-2928 -2935 0
-2928 -2936 0
-2928 -2937 0
-2928 -2938 0
-2928 -2939 0
-2929 -2930 0
-2929 -2931 0
-2929 -2932 0
-2929 -2933 0
-2929 -2934 0
-2929 -2935 0
-2929 -2936 0
-2929 -2937 0
-2929 -2938 0
-2929 -2939 0
-2930 -2931 0
-2930 -2932 0
-2930 -2933 0
-2930 -2934 0
-2930 -2935 0
-2930 -2936 0
-2930 -2937 0
-2930 -2938 0
-2930 -2939 0
-2931 -2932 0
-2931 -2933 0
-2931 -2934 0
-2931 -2935 0
-2931 -2936 0
-2931 -2937 0
-2931 -2938 0
-2931 -2939 0
-2932 -2933 0
-2932 -2934 0
-2932 -2935 0
-2932 -2936 0
-2932 -2937 0
-2932 -2938 0
-2932 -2939 0
-2933 -2934 0
-2933 -2935 0
-2933 -2936 0
-2933 -2937 0
-2933 -2938 0
-2933 -2939 0
-2934 -2935 0
-2934 -2936 0
-2934 -2937 0
-2934 -2938 0
-2934 -2939 0
-2935 -2936 0
-2935 -2937 0
-2935 -2938 0
-2935 -2939 0
-2936 -2937 0
-2936 -2938 0
-2936 -2939 0
-2937 -2938 0
-2937 -2939 0
-2938 -2939 0
